
******************************************************************************
This program contains Ipopt, a library for large-scale nonlinear optimization.
 Ipopt is released as open source code under the Eclipse Public License (EPL).
         For more information visit http://projects.coin-or.org/Ipopt
******************************************************************************

This is Ipopt version 3.12.6, running with linear solver ma57.

Number of nonzeros in equality constraint Jacobian...:   132651
Number of nonzeros in inequality constraint Jacobian.:        0
Number of nonzeros in Lagrangian Hessian.............:  3517878

Reallocating memory for MA57: lfact (35798123)
Total number of variables............................:     2652
                     variables with only lower bounds:        0
                variables with lower and upper bounds:        0
                     variables with only upper bounds:        0
Total number of equality constraints.................:     1326
Total number of inequality constraints...............:        0
        inequality constraints with only lower bounds:        0
   inequality constraints with lower and upper bounds:        0
        inequality constraints with only upper bounds:        0

iter    objective    inf_pr   inf_du lg(mu)  ||d||  lg(rg) alpha_du alpha_pr  ls
   0  1.1151000e+04 0.00e+00 5.00e+01  -1.0 0.00e+00    -  0.00e+00 0.00e+00   0
   1  1.0736046e+04 6.58e-08 4.91e+01  -1.0 4.91e-01   2.0 1.00e+00 1.00e+00f  1
   2  9.6020500e+03 8.69e-06 4.64e+01  -1.0 1.39e+00   1.5 1.00e+00 1.00e+00f  1
   3  6.9896016e+03 6.34e-04 4.88e+01  -1.0 3.56e+00   1.0 1.00e+00 1.00e+00f  1
   4  3.0492316e+03 2.38e-02 1.90e+02  -1.0 7.03e+00   0.6 1.00e+00 1.00e+00f  1
   5  5.0074587e+02 2.08e-01 2.62e+02  -1.0 8.25e+00   0.1 1.00e+00 1.00e+00f  1
   6  5.1814084e+01 2.67e-01 7.34e+01  -1.0 4.37e+00  -0.4 1.00e+00 1.00e+00f  1
   7  3.4829907e+01 6.38e-02 4.51e+00  -1.0 6.04e-01   0.0 1.00e+00 1.00e+00f  1
   8  2.8891360e+01 3.60e-02 2.89e+01  -1.0 2.05e-01   0.5 1.00e+00 5.00e-01f  2
   9  2.4416803e+01 5.14e-02 1.14e+01  -1.0 2.40e-01  -0.0 1.00e+00 1.00e+00f  1
iter    objective    inf_pr   inf_du lg(mu)  ||d||  lg(rg) alpha_du alpha_pr  ls
  10  2.7393697e+01 6.24e-02 1.18e+02  -1.0 5.86e-01  -0.5 1.00e+00 5.00e-01h  2
  11  1.7143924e+01 2.91e-02 1.21e+01  -1.0 2.07e-01  -1.0 1.00e+00 1.00e+00f  1
  12  1.7082756e+01 2.89e-02 1.54e+01  -1.0 1.36e+01  -0.5 1.00e+00 7.81e-03f  8
  13  1.6310937e+01 2.54e-02 1.96e+01  -1.0 1.42e+00  -1.0 1.00e+00 1.25e-01f  4
  14  1.3729488e+01 2.40e-02 4.08e+01  -1.0 2.58e-01  -1.5 1.00e+00 1.00e+00f  1
  15  1.0434688e+01 2.66e-02 1.78e+01  -1.0 1.62e-01  -2.0 1.00e+00 1.00e+00f  1
  16  9.4318688e+00 2.00e-02 1.92e+01  -1.0 5.26e-01  -2.4 1.00e+00 2.50e-01f  3
  17  7.3873081e+00 2.39e-02 1.27e+01  -1.0 1.19e-01  -2.9 1.00e+00 1.00e+00f  1
  18  6.2995680e+00 1.35e-02 1.44e+01  -1.0 2.28e-01  -3.4 1.00e+00 5.00e-01f  2
  19  4.8826126e+00 7.41e-03 7.26e+00  -1.0 6.75e-02  -3.9 1.00e+00 1.00e+00f  1
iter    objective    inf_pr   inf_du lg(mu)  ||d||  lg(rg) alpha_du alpha_pr  ls
  20  4.5348466e+00 6.41e-03 1.38e+01  -1.0 3.92e-01  -4.4 1.00e+00 2.50e-01f  3
  21  3.7941458e+00 1.27e-02 8.28e+00  -1.0 8.83e-02  -4.8 1.00e+00 1.00e+00f  1
  22  3.7099715e+00 1.94e-02 3.99e+01  -1.0 1.64e-01  -5.3 1.00e+00 1.00e+00f  1
  23  2.7254580e+00 9.78e-03 2.02e+01  -1.0 1.36e-01  -5.8 1.00e+00 5.00e-01f  2
  24  2.0353292e+00 4.35e-03 3.99e+00  -1.0 5.73e-02  -6.3 1.00e+00 1.00e+00f  1
  25  1.9780566e+00 5.40e-03 1.12e+01  -1.0 7.21e-01  -6.7 1.00e+00 1.25e-01h  4
  26  1.8114669e+00 9.74e-03 1.40e+01  -1.0 7.71e-02  -7.2 1.00e+00 1.00e+00f  1
  27  1.7428613e+00 9.13e-03 1.31e+01  -1.0 1.25e+00  -7.7 1.00e+00 6.25e-02h  5
  28  1.1934008e+00 4.02e-03 4.77e+00  -1.0 5.17e-02  -8.2 1.00e+00 1.00e+00f  1
  29  1.1107102e+00 8.11e-03 1.05e+01  -1.0 1.63e-01  -8.7 1.00e+00 5.00e-01f  2
iter    objective    inf_pr   inf_du lg(mu)  ||d||  lg(rg) alpha_du alpha_pr  ls
  30  7.3893596e-01 2.92e-03 3.06e+00  -1.0 4.26e-02  -9.1 1.00e+00 1.00e+00f  1
  31  6.4056291e-01 3.44e-03 4.24e+00  -1.0 2.16e-01  -9.6 1.00e+00 2.50e-01f  3
  32  4.8983770e-01 5.29e-03 6.50e+00  -1.0 6.99e-02 -10.1 1.00e+00 1.00e+00h  1
  33  3.4509723e-01 3.85e-03 4.35e+00  -1.0 4.77e-02 -10.6 1.00e+00 1.00e+00h  1
  34  3.0318022e-01 5.90e-03 8.31e+00  -1.0 1.58e-01 -11.0 1.00e+00 5.00e-01h  2
  35  1.6790357e-01 1.28e-03 9.58e-01  -1.0 2.24e-02 -11.5 1.00e+00 1.00e+00h  1
  36  1.3462126e-01 1.97e-03 3.30e+00  -1.7 1.53e-01 -12.0 1.00e+00 2.50e-01h  3
  37  8.3238947e-02 2.15e-03 2.39e+00  -1.7 2.87e-02 -12.5 1.00e+00 1.00e+00h  1
  38  4.7195467e-02 1.65e-03 2.77e+00  -1.7 3.65e-02 -12.9 1.00e+00 1.00e+00h  1
  39  2.5213618e-02 1.04e-03 1.30e+00  -1.7 2.44e-02 -13.4 1.00e+00 1.00e+00h  1
iter    objective    inf_pr   inf_du lg(mu)  ||d||  lg(rg) alpha_du alpha_pr  ls
  40  1.3455821e-02 1.35e-03 2.24e+00  -1.7 3.27e-02 -13.9 1.00e+00 1.00e+00h  1
  41  4.9110507e-03 2.55e-04 3.83e-01  -1.7 1.45e-02 -14.4 1.00e+00 1.00e+00h  1
  42  2.7367881e-03 8.78e-04 1.43e+00  -1.7 2.59e-02 -14.9 1.00e+00 1.00e+00h  1
  43  2.3246742e-04 2.40e-05 4.36e-02  -1.7 4.72e-03 -15.3 1.00e+00 1.00e+00h  1
  44  2.1505636e-05 8.71e-05 1.39e-01  -2.5 8.06e-03 -15.8 1.00e+00 1.00e+00h  1
  45  1.6839933e-08 1.81e-07 3.51e-04  -2.5 3.79e-04 -16.3 1.00e+00 1.00e+00h  1
  46  1.4338337e-13 7.49e-09 1.15e-05  -5.7 7.19e-05 -16.8 1.00e+00 1.00e+00h  1
  47  8.7526527e-25 1.38e-15 2.60e-12  -8.6 2.94e-08 -17.2 1.00e+00 1.00e+00h  1

Number of Iterations....: 47

                                   (scaled)                 (unscaled)
Objective...............:   8.4160122330507405e-25    8.7526527223727700e-25
Dual infeasibility......:   2.6013985870795735e-12    2.7054545305627566e-12
Constraint violation....:   1.3823342522706921e-15    1.3823342522706921e-15
Complementarity.........:   0.0000000000000000e+00    0.0000000000000000e+00
Overall NLP error.......:   2.6013985870795735e-12    2.7054545305627566e-12


Number of objective function evaluations             = 99
Number of objective gradient evaluations             = 48
Number of equality constraint evaluations            = 100
Number of inequality constraint evaluations          = 0
Number of equality constraint Jacobian evaluations   = 48
Number of inequality constraint Jacobian evaluations = 0
Number of Lagrangian Hessian evaluations             = 47
Total CPU secs in IPOPT (w/o function evaluations)   =    226.837
Total CPU secs in NLP function evaluations           =     15.987

EXIT: Optimal Solution Found.
Note: The following floating-point exceptions are signalling: IEEE_UNDERFLOW_FLAG IEEE_DENORMAL

************************ CUTEst statistics ************************


 Package used            :  IPOPT
 Problem                 :  EIGENCCO  
 # variables             =            2652
 # constraints           =            1326
 # objective functions   =        0.1480000E+03
 # objective gradients   =        0.4900000E+02
 # objective Hessians    =        0.4800000E+02
 # Hessian-vector prdct  =        0.0000000E+00
 # constraints functions =        0.1500000E+03
 # constraints gradients =        0.5000000E+02
 # constraints Hessians  =        0.4800000E+02
 Exit code               =               0
 Final f                 =   0.8752653E-24
 Set up time             =            0.92 seconds
 Solve time              =          344.78 seconds


******************************************************************

System Time =     113.7600021362 s.
